certificates/rado_a15_c52_N83.cnf
c Rad2 upper bound instance: x1 + 15*x2 - x3 = 52, interval [1,83]
p cnf 83 814
1 4 9 0
-1 -4 -9 0
1 5 24 0
-1 -5 -24 0
1 6 39 0
-1 -6 -39 0
1 7 54 0
-1 -7 -54 0
1 8 69 0
-1 -8 -69 0
2 4 10 0
-2 -4 -10 0
2 5 25 0
-2 -5 -25 0
2 6 40 0
-2 -6 -40 0
2 7 55 0
-2 -7 -55 0
2 8 70 0
-2 -8 -70 0
3 4 11 0
-3 -4 -11 0
3 5 26 0
-3 -5 -26 0
3 6 41 0
-3 -6 -41 0
3 7 56 0
-3 -7 -56 0
3 8 71 0
-3 -8 -71 0
4 12 0
-4 -12 0
4 5 27 0
-4 -5 -27 0
4 6 42 0
-4 -6 -42 0
4 7 57 0
-4 -7 -57 0
4 8 72 0
-4 -8 -72 0
4 5 13 0
-4 -5 -13 0
5 28 0
-5 -28 0
5 6 43 0
-5 -6 -43 0
5 7 58 0
-5 -7 -58 0
5 8 73 0
-5 -8 -73 0
4 6 14 0
-4 -6 -14 0
5 6 29 0
-5 -6 -29 0
6 44 0
-6 -44 0
6 7 59 0
-6 -7 -59 0
6 8 74 0
-6 -8 -74 0
4 7 15 0
-4 -7 -15 0
5 7 30 0
-5 -7 -30 0
6 7 45 0
-6 -7 -45 0
7 60 0
-7 -60 0
7 8 75 0
-7 -8 -75 0
1 3 8 0
-1 -3 -8 0
4 8 16 0
-4 -8 -16 0
5 8 31 0
-5 -8 -31 0
6 8 46 0
-6 -8 -46 0
7 8 61 0
-7 -8 -61 0
8 76 0
-8 -76 0
2 3 9 0
-2 -3 -9 0
4 9 17 0
-4 -9 -17 0
5 9 32 0
-5 -9 -32 0
6 9 47 0
-6 -9 -47 0
7 9 62 0
-7 -9 -62 0
8 9 77 0
-8 -9 -77 0
3 10 0
-3 -10 0
4 10 18 0
-4 -10 -18 0
5 10 33 0
-5 -10 -33 0
6 10 48 0
-6 -10 -48 0
7 10 63 0
-7 -10 -63 0
8 10 78 0
-8 -10 -78 0
4 11 19 0
-4 -11 -19 0
5 11 34 0
-5 -11 -34 0
6 11 49 0
-6 -11 -49 0
7 11 64 0
-7 -11 -64 0
8 11 79 0
-8 -11 -79 0
3 5 12 0
-3 -5 -12 0
4 12 20 0
-4 -12 -20 0
5 12 35 0
-5 -12 -35 0
6 12 50 0
-6 -12 -50 0
7 12 65 0
-7 -12 -65 0
8 12 80 0
-8 -12 -80 0
3 6 13 0
-3 -6 -13 0
4 13 21 0
-4 -13 -21 0
5 13 36 0
-5 -13 -36 0
6 13 51 0
-6 -13 -51 0
7 13 66 0
-7 -13 -66 0
8 13 81 0
-8 -13 -81 0
3 7 14 0
-3 -7 -14 0
4 14 22 0
-4 -14 -22 0
5 14 37 0
-5 -14 -37 0
6 14 52 0
-6 -14 -52 0
7 14 67 0
-7 -14 -67 0
8 14 82 0
-8 -14 -82 0
3 8 15 0
-3 -8 -15 0
4 15 23 0
-4 -15 -23 0
5 15 38 0
-5 -15 -38 0
6 15 53 0
-6 -15 -53 0
7 15 68 0
-7 -15 -68 0
8 15 83 0
-8 -15 -83 0
3 9 16 0
-3 -9 -16 0
4 16 24 0
-4 -16 -24 0
5 16 39 0
-5 -16 -39 0
6 16 54 0
-6 -16 -54 0
7 16 69 0
-7 -16 -69 0
3 10 17 0
-3 -10 -17 0
4 17 25 0
-4 -17 -25 0
5 17 40 0
-5 -17 -40 0
6 17 55 0
-6 -17 -55 0
7 17 70 0
-7 -17 -70 0
3 11 18 0
-3 -11 -18 0
4 18 26 0
-4 -18 -26 0
5 18 41 0
-5 -18 -41 0
6 18 56 0
-6 -18 -56 0
7 18 71 0
-7 -18 -71 0
3 12 19 0
-3 -12 -19 0
4 19 27 0
-4 -19 -27 0
5 19 42 0
-5 -19 -42 0
6 19 57 0
-6 -19 -57 0
7 19 72 0
-7 -19 -72 0
3 13 20 0
-3 -13 -20 0
4 20 28 0
-4 -20 -28 0
5 20 43 0
-5 -20 -43 0
6 20 58 0
-6 -20 -58 0
7 20 73 0
-7 -20 -73 0
3 14 21 0
-3 -14 -21 0
4 21 29 0
-4 -21 -29 0
5 21 44 0
-5 -21 -44 0
6 21 59 0
-6 -21 -59 0
7 21 74 0
-7 -21 -74 0
3 15 22 0
-3 -15 -22 0
4 22 30 0
-4 -22 -30 0
5 22 45 0
-5 -22 -45 0
6 22 60 0
-6 -22 -60 0
7 22 75 0
-7 -22 -75 0
1 2 23 0
-1 -2 -23 0
3 16 23 0
-3 -16 -23 0
4 23 31 0
-4 -23 -31 0
5 23 46 0
-5 -23 -46 0
6 23 61 0
-6 -23 -61 0
7 23 76 0
-7 -23 -76 0
2 24 0
-2 -24 0
3 17 24 0
-3 -17 -24 0
4 24 32 0
-4 -24 -32 0
5 24 47 0
-5 -24 -47 0
6 24 62 0
-6 -24 -62 0
7 24 77 0
-7 -24 -77 0
2 3 25 0
-2 -3 -25 0
3 18 25 0
-3 -18 -25 0
4 25 33 0
-4 -25 -33 0
5 25 48 0
-5 -25 -48 0
6 25 63 0
-6 -25 -63 0
7 25 78 0
-7 -25 -78 0
2 4 26 0
-2 -4 -26 0
3 19 26 0
-3 -19 -26 0
4 26 34 0
-4 -26 -34 0
5 26 49 0
-5 -26 -49 0
6 26 64 0
-6 -26 -64 0
7 26 79 0
-7 -26 -79 0
2 5 27 0
-2 -5 -27 0
3 20 27 0
-3 -20 -27 0
4 27 35 0
-4 -27 -35 0
5 27 50 0
-5 -27 -50 0
6 27 65 0
-6 -27 -65 0
7 27 80 0
-7 -27 -80 0
2 6 28 0
-2 -6 -28 0
3 21 28 0
-3 -21 -28 0
4 28 36 0
-4 -28 -36 0
5 28 51 0
-5 -28 -51 0
6 28 66 0
-6 -28 -66 0
7 28 81 0
-7 -28 -81 0
2 7 29 0
-2 -7 -29 0
3 22 29 0
-3 -22 -29 0
4 29 37 0
-4 -29 -37 0
5 29 52 0
-5 -29 -52 0
6 29 67 0
-6 -29 -67 0
7 29 82 0
-7 -29 -82 0
2 8 30 0
-2 -8 -30 0
3 23 30 0
-3 -23 -30 0
4 30 38 0
-4 -30 -38 0
5 30 53 0
-5 -30 -53 0
6 30 68 0
-6 -30 -68 0
7 30 83 0
-7 -30 -83 0
2 9 31 0
-2 -9 -31 0
3 24 31 0
-3 -24 -31 0
4 31 39 0
-4 -31 -39 0
5 31 54 0
-5 -31 -54 0
6 31 69 0
-6 -31 -69 0
2 10 32 0
-2 -10 -32 0
3 25 32 0
-3 -25 -32 0
4 32 40 0
-4 -32 -40 0
5 32 55 0
-5 -32 -55 0
6 32 70 0
-6 -32 -70 0
2 11 33 0
-2 -11 -33 0
3 26 33 0
-3 -26 -33 0
4 33 41 0
-4 -33 -41 0
5 33 56 0
-5 -33 -56 0
6 33 71 0
-6 -33 -71 0
2 12 34 0
-2 -12 -34 0
3 27 34 0
-3 -27 -34 0
4 34 42 0
-4 -34 -42 0
5 34 57 0
-5 -34 -57 0
6 34 72 0
-6 -34 -72 0
2 13 35 0
-2 -13 -35 0
3 28 35 0
-3 -28 -35 0
4 35 43 0
-4 -35 -43 0
5 35 58 0
-5 -35 -58 0
6 35 73 0
-6 -35 -73 0
2 14 36 0
-2 -14 -36 0
3 29 36 0
-3 -29 -36 0
4 36 44 0
-4 -36 -44 0
5 36 59 0
-5 -36 -59 0
6 36 74 0
-6 -36 -74 0
2 15 37 0
-2 -15 -37 0
3 30 37 0
-3 -30 -37 0
4 37 45 0
-4 -37 -45 0
5 37 60 0
-5 -37 -60 0
6 37 75 0
-6 -37 -75 0
1 38 0
-1 -38 0
2 16 38 0
-2 -16 -38 0
3 31 38 0
-3 -31 -38 0
4 38 46 0
-4 -38 -46 0
5 38 61 0
-5 -38 -61 0
6 38 76 0
-6 -38 -76 0
1 2 39 0
-1 -2 -39 0
2 17 39 0
-2 -17 -39 0
3 32 39 0
-3 -32 -39 0
4 39 47 0
-4 -39 -47 0
5 39 62 0
-5 -39 -62 0
6 39 77 0
-6 -39 -77 0
1 3 40 0
-1 -3 -40 0
2 18 40 0
-2 -18 -40 0
3 33 40 0
-3 -33 -40 0
4 40 48 0
-4 -40 -48 0
5 40 63 0
-5 -40 -63 0
6 40 78 0
-6 -40 -78 0
1 4 41 0
-1 -4 -41 0
2 19 41 0
-2 -19 -41 0
3 34 41 0
-3 -34 -41 0
4 41 49 0
-4 -41 -49 0
5 41 64 0
-5 -41 -64 0
6 41 79 0
-6 -41 -79 0
1 5 42 0
-1 -5 -42 0
2 20 42 0
-2 -20 -42 0
3 35 42 0
-3 -35 -42 0
4 42 50 0
-4 -42 -50 0
5 42 65 0
-5 -42 -65 0
6 42 80 0
-6 -42 -80 0
1 6 43 0
-1 -6 -43 0
2 21 43 0
-2 -21 -43 0
3 36 43 0
-3 -36 -43 0
4 43 51 0
-4 -43 -51 0
5 43 66 0
-5 -43 -66 0
6 43 81 0
-6 -43 -81 0
1 7 44 0
-1 -7 -44 0
2 22 44 0
-2 -22 -44 0
3 37 44 0
-3 -37 -44 0
4 44 52 0
-4 -44 -52 0
5 44 67 0
-5 -44 -67 0
6 44 82 0
-6 -44 -82 0
1 8 45 0
-1 -8 -45 0
2 23 45 0
-2 -23 -45 0
3 38 45 0
-3 -38 -45 0
4 45 53 0
-4 -45 -53 0
5 45 68 0
-5 -45 -68 0
6 45 83 0
-6 -45 -83 0
1 9 46 0
-1 -9 -46 0
2 24 46 0
-2 -24 -46 0
3 39 46 0
-3 -39 -46 0
4 46 54 0
-4 -46 -54 0
5 46 69 0
-5 -46 -69 0
1 10 47 0
-1 -10 -47 0
2 25 47 0
-2 -25 -47 0
3 40 47 0
-3 -40 -47 0
4 47 55 0
-4 -47 -55 0
5 47 70 0
-5 -47 -70 0
1 11 48 0
-1 -11 -48 0
2 26 48 0
-2 -26 -48 0
3 41 48 0
-3 -41 -48 0
4 48 56 0
-4 -48 -56 0
5 48 71 0
-5 -48 -71 0
1 12 49 0
-1 -12 -49 0
2 27 49 0
-2 -27 -49 0
3 42 49 0
-3 -42 -49 0
4 49 57 0
-4 -49 -57 0
5 49 72 0
-5 -49 -72 0
1 13 50 0
-1 -13 -50 0
2 28 50 0
-2 -28 -50 0
3 43 50 0
-3 -43 -50 0
4 50 58 0
-4 -50 -58 0
5 50 73 0
-5 -50 -73 0
1 14 51 0
-1 -14 -51 0
2 29 51 0
-2 -29 -51 0
3 44 51 0
-3 -44 -51 0
4 51 59 0
-4 -51 -59 0
5 51 74 0
-5 -51 -74 0
1 15 52 0
-1 -15 -52 0
2 30 52 0
-2 -30 -52 0
3 45 52 0
-3 -45 -52 0
4 52 60 0
-4 -52 -60 0
5 52 75 0
-5 -52 -75 0
1 16 53 0
-1 -16 -53 0
2 31 53 0
-2 -31 -53 0
3 46 53 0
-3 -46 -53 0
4 53 61 0
-4 -53 -61 0
5 53 76 0
-5 -53 -76 0
1 17 54 0
-1 -17 -54 0
2 32 54 0
-2 -32 -54 0
3 47 54 0
-3 -47 -54 0
4 54 62 0
-4 -54 -62 0
5 54 77 0
-5 -54 -77 0
1 18 55 0
-1 -18 -55 0
2 33 55 0
-2 -33 -55 0
3 48 55 0
-3 -48 -55 0
4 55 63 0
-4 -55 -63 0
5 55 78 0
-5 -55 -78 0
1 19 56 0
-1 -19 -56 0
2 34 56 0
-2 -34 -56 0
3 49 56 0
-3 -49 -56 0
4 56 64 0
-4 -56 -64 0
5 56 79 0
-5 -56 -79 0
1 20 57 0
-1 -20 -57 0
2 35 57 0
-2 -35 -57 0
3 50 57 0
-3 -50 -57 0
4 57 65 0
-4 -57 -65 0
5 57 80 0
-5 -57 -80 0
1 21 58 0
-1 -21 -58 0
2 36 58 0
-2 -36 -58 0
3 51 58 0
-3 -51 -58 0
4 58 66 0
-4 -58 -66 0
5 58 81 0
-5 -58 -81 0
1 22 59 0
-1 -22 -59 0
2 37 59 0
-2 -37 -59 0
3 52 59 0
-3 -52 -59 0
4 59 67 0
-4 -59 -67 0
5 59 82 0
-5 -59 -82 0
1 23 60 0
-1 -23 -60 0
2 38 60 0
-2 -38 -60 0
3 53 60 0
-3 -53 -60 0
4 60 68 0
-4 -60 -68 0
5 60 83 0
-5 -60 -83 0
1 24 61 0
-1 -24 -61 0
2 39 61 0
-2 -39 -61 0
3 54 61 0
-3 -54 -61 0
4 61 69 0
-4 -61 -69 0
1 25 62 0
-1 -25 -62 0
2 40 62 0
-2 -40 -62 0
3 55 62 0
-3 -55 -62 0
4 62 70 0
-4 -62 -70 0
1 26 63 0
-1 -26 -63 0
2 41 63 0
-2 -41 -63 0
3 56 63 0
-3 -56 -63 0
4 63 71 0
-4 -63 -71 0
1 27 64 0
-1 -27 -64 0
2 42 64 0
-2 -42 -64 0
3 57 64 0
-3 -57 -64 0
4 64 72 0
-4 -64 -72 0
1 28 65 0
-1 -28 -65 0
2 43 65 0
-2 -43 -65 0
3 58 65 0
-3 -58 -65 0
4 65 73 0
-4 -65 -73 0
1 29 66 0
-1 -29 -66 0
2 44 66 0
-2 -44 -66 0
3 59 66 0
-3 -59 -66 0
4 66 74 0
-4 -66 -74 0
1 30 67 0
-1 -30 -67 0
2 45 67 0
-2 -45 -67 0
3 60 67 0
-3 -60 -67 0
4 67 75 0
-4 -67 -75 0
1 31 68 0
-1 -31 -68 0
2 46 68 0
-2 -46 -68 0
3 61 68 0
-3 -61 -68 0
4 68 76 0
-4 -68 -76 0
1 32 69 0
-1 -32 -69 0
2 47 69 0
-2 -47 -69 0
3 62 69 0
-3 -62 -69 0
4 69 77 0
-4 -69 -77 0
1 33 70 0
-1 -33 -70 0
2 48 70 0
-2 -48 -70 0
3 63 70 0
-3 -63 -70 0
4 70 78 0
-4 -70 -78 0
1 34 71 0
-1 -34 -71 0
2 49 71 0
-2 -49 -71 0
3 64 71 0
-3 -64 -71 0
4 71 79 0
-4 -71 -79 0
1 35 72 0
-1 -35 -72 0
2 50 72 0
-2 -50 -72 0
3 65 72 0
-3 -65 -72 0
4 72 80 0
-4 -72 -80 0
1 36 73 0
-1 -36 -73 0
2 51 73 0
-2 -51 -73 0
3 66 73 0
-3 -66 -73 0
4 73 81 0
-4 -73 -81 0
1 37 74 0
-1 -37 -74 0
2 52 74 0
-2 -52 -74 0
3 67 74 0
-3 -67 -74 0
4 74 82 0
-4 -74 -82 0
1 38 75 0
-1 -38 -75 0
2 53 75 0
-2 -53 -75 0
3 68 75 0
-3 -68 -75 0
4 75 83 0
-4 -75 -83 0
1 39 76 0
-1 -39 -76 0
2 54 76 0
-2 -54 -76 0
3 69 76 0
-3 -69 -76 0
1 40 77 0
-1 -40 -77 0
2 55 77 0
-2 -55 -77 0
3 70 77 0
-3 -70 -77 0
1 41 78 0
-1 -41 -78 0
2 56 78 0
-2 -56 -78 0
3 71 78 0
-3 -71 -78 0
1 42 79 0
-1 -42 -79 0
2 57 79 0
-2 -57 -79 0
3 72 79 0
-3 -72 -79 0
1 43 80 0
-1 -43 -80 0
2 58 80 0
-2 -58 -80 0
3 73 80 0
-3 -73 -80 0
1 44 81 0
-1 -44 -81 0
2 59 81 0
-2 -59 -81 0
3 74 81 0
-3 -74 -81 0
1 45 82 0
-1 -45 -82 0
2 60 82 0
-2 -60 -82 0
3 75 82 0
-3 -75 -82 0
1 46 83 0
-1 -46 -83 0
2 61 83 0
-2 -61 -83 0
3 76 83 0
-3 -76 -83 0
