certificates/rado_a15_c52_N83.drat
-76 -79 -83 0
10 -4 76 0
-79 -80 -83 0
76 79 -80 0
-76 -82 -83 0
3 80 13 14 0
79 13 14 76 0
13 -82 -83 0
-3 80 -79 76 0
-79 -82 -83 0
3 81 14 0
-82 -83 0
d -76 -82 -83 0
-3 -83 0
-8 -83 0
-83 0
3 4 8 0
4 8 0
d 72 4 8 0
8 0
-76 0
3 0
-10 0
-1 0
-15 0
-71 0
-4 0
2 0
18 0
38 0
46 0
39 0
52 0
47 0
34 0
9 0
41 0
7 0
23 0
79 0
63 0
12 0
75 0
68 0
-24 0
-70 0
-30 0
0
